multiobj/instances/uniform/Ter.6.3.0.80.3.in
6 3
0 774 34 397 940 378 
774 0 654 5 8 425 
34 654 0 177 493 205 
397 5 177 0 420 349 
940 8 493 420 0 958 
378 425 205 349 958 0 
0 288 295 277 636 621 
288 0 964 42 27 273 
295 964 0 188 693 557 
277 42 188 0 905 166 
636 27 693 905 0 491 
621 273 557 166 491 0 
0 430 184 247 698 628 
430 0 967 45 103 269 
184 967 0 314 858 509 
247 45 314 0 919 149 
698 103 858 919 0 508 
628 269 509 149 508 0 
0 156 186 226 595 614 
156 0 937 25 106 113 
186 937 0 385 478 321 
226 25 385 0 872 116 
595 106 478 872 0 613 
614 113 321 116 613 0 
