multiobj/solutions/Ter.6.3.0.80.3.out
2 3
3 0 2 4 1 5 
3468364 3945070 3068004 
1 0 2 5 3 4 
3949202 4108580 3061270 
